(declare-const Bracket_1 Real)
(declare-const Bracket_2 Real)
(declare-const Bracket_3 Real)
(declare-const Bracket_4 Real)
(declare-const Bracket_5 Real)
(declare-const FinalTaxes Real)
(declare-const Income Real)

(assert (=> (<= Income 57375) (and (= Bracket_1 (* Income 0.145)) (= Bracket_2 0) (= Bracket_3 0) (= Bracket_4 0) (= Bracket_5 0))))
(assert (=> (and (> Income 57375) (<= Income 114750)) (and (= Bracket_1 (* 57375 0.145)) (= Bracket_2 (* (- Income 57375) 0.205)) (= Bracket_3 0) (= Bracket_4 0) (= Bracket_5 0))))
(assert (=> (and (> Income 114750) (<= Income 177882)) (and (= Bracket_1 (* 57375 0.145)) (= Bracket_2 (* (- 114750 57375) 0.205)) (= Bracket_3 (* (- Income 114750) 0.26)) (= Bracket_4 0) (= Bracket_5 0))))
(assert (=> (and (> Income 177882) (<= Income 253414)) (and (= Bracket_1 (* 57375 0.145)) (= Bracket_2 (* (- 114750 57375) 0.205)) (= Bracket_3 (* (- 177882 114750) 0.26)) (= Bracket_4 (* (- Income 177882) 0.29)) (= Bracket_5 0))))
(assert (=> (and (> Income 253414)) (and (= Bracket_1 (* 57375 0.145)) (= Bracket_2 (* (- 114750 57375) 0.205)) (= Bracket_3 (* (- 177882 114750) 0.26)) (= Bracket_4 (* (- 253414 177882) 0.29)) (= Bracket_5 (* (- Income 253414) 0.33)))))
(assert (= FinalTaxes (+ Bracket_1 Bracket_2 Bracket_3 Bracket_4 Bracket_5)))